************************************************************************
file with basedata            : mm26_.bas
initial value random generator: 258852259
************************************************************************
projects                      :  1
jobs (incl. supersource/sink ):  12
horizon                       :  75
RESOURCES
  - renewable                 :  2   R
  - nonrenewable              :  2   N
  - doubly constrained        :  0   D
************************************************************************
PROJECT INFORMATION:
pronr.  #jobs rel.date duedate tardcost  MPM-Time
    1     10      0       11        5       11
************************************************************************
PRECEDENCE RELATIONS:
jobnr.    #modes  #successors   successors
   0        1          3           1   2   3
   1        3          3           4   5   8
   2        3          1          10
   3        3          2           4   8
   4        3          3           6   7  10
   5        3          1           9
   6        3          1           9
   7        3          1           9
   8        3          1          11
   9        3          1          11
  10        3          1          11
  11        1          0        
************************************************************************
REQUESTS/DURATIONS:
jobnr. mode duration  R 1  R 2  R 3  R 4  E(W 1)  E(W 2)  E(W 3)
------------------------------------------------------------------------
  0      1     0       0    0    0    0     0       0       0
  1      1     2       6    0    9    0    12      18       0
  2      1     3       1    0    0    8     6       0      24
  3      1     2       0    9    0    8    18       0      16
  4      1     1       0    6    8    0     6       8       0
  5      1     1       4    0    4    0     4       4       0
  6      1     3       9    0    0    5    27       0      15
  7      1     3       0    9    8    0    27      24       0
  8      1     1       0    7   10    0     7      10       0
  9      1     2       0    6    7    0    12      14       0
 10      1     8       0    3    0    6    24       0      48
 11      1     0       0    0    0    0     0       0       0
************************************************************************
RESOURCEAVAILABILITIES:
  R 1  R 2  R 3
   41   44   23
************************************************************************
RESOURCE LIMITS:
jobnr.  l(R 1)  u(R 1)  l(R 2)  u(R 2)  l(R 3)  u(R 3)
------------------------------------------------------------------------
  0        0       0       0       0       0       0
  1        3       6       5       9       0       0
  2        1       2       0       0       4       8
  3        5       9       0       0       4       8
  4        3       6       4       8       0       0
  5        2       4       2       4       0       0
  6        5       9       0       0       3       5
  7        5       9       4       8       0       0
  8        4       7       5      10       0       0
  9        3       6       4       7       0       0
 10        2       3       0       0       3       6
 11        0       0       0       0       0       0
************************************************************************
SCENARIOS:
------------------------------------------------------------------------
RESOURCE k = 1
s = 1: (0, 8, 8, 21, 8, 5, 37, 30, 6, 8, 23, 0)
s = 2: (0, 20, 6, 13, 10, 5, 21, 34, 7, 14, 32, 0)
s = 3: (0, 17, 4, 17, 6, 6, 31, 23, 6, 10, 28, 0)
s = 4: (0, 13, 4, 19, 7, 4, 26, 34, 6, 8, 21, 0)
s = 5: (0, 8, 8, 24, 5, 4, 30, 43, 6, 18, 22, 0)
s = 6: (0, 10, 4, 22, 6, 4, 25, 40, 7, 7, 16, 0)
s = 7: (0, 15, 6, 29, 6, 4, 23, 30, 7, 11, 22, 0)
s = 8: (0, 12, 8, 27, 8, 6, 35, 32, 11, 10, 37, 0)
s = 9: (0, 12, 6, 21, 11, 5, 38, 26, 6, 19, 35, 0)
s = 10: (0, 8, 5, 24, 8, 3, 16, 23, 7, 11, 23, 0)
s = 11: (0, 14, 4, 20, 5, 3, 20, 28, 11, 18, 23, 0)
s = 12: (0, 9, 6, 11, 5, 5, 38, 19, 6, 12, 28, 0)
s = 13: (0, 7, 5, 17, 6, 7, 24, 15, 6, 19, 28, 0)
s = 14: (0, 13, 8, 14, 4, 3, 27, 24, 10, 9, 25, 0)
s = 15: (0, 14, 7, 17, 10, 3, 52, 22, 5, 15, 26, 0)
s = 16: (0, 12, 9, 10, 7, 4, 35, 43, 5, 11, 27, 0)
s = 17: (0, 14, 7, 19, 6, 3, 23, 37, 7, 11, 43, 0)
s = 18: (0, 11, 6, 18, 8, 4, 38, 22, 7, 18, 32, 0)
s = 19: (0, 8, 8, 14, 9, 6, 30, 46, 6, 9, 26, 0)
s = 20: (0, 14, 5, 24, 7, 3, 32, 22, 9, 7, 24, 0)
s = 21: (0, 14, 6, 28, 5, 5, 25, 17, 5, 11, 24, 0)
s = 22: (0, 17, 5, 20, 6, 4, 24, 29, 6, 9, 27, 0)
s = 23: (0, 13, 5, 14, 8, 3, 23, 28, 10, 12, 28, 0)
s = 24: (0, 12, 7, 28, 10, 3, 22, 17, 6, 11, 23, 0)
s = 25: (0, 14, 4, 27, 7, 5, 22, 28, 6, 13, 14, 0)
s = 26: (0, 8, 4, 22, 8, 4, 29, 23, 7, 14, 39, 0)
s = 27: (0, 13, 6, 23, 5, 7, 31, 21, 4, 13, 30, 0)
s = 28: (0, 13, 8, 15, 8, 3, 15, 27, 4, 9, 22, 0)
s = 29: (0, 9, 5, 30, 6, 5, 23, 29, 7, 9, 18, 0)
s = 30: (0, 8, 7, 22, 10, 7, 40, 26, 7, 8, 32, 0)
s = 31: (0, 8, 5, 27, 6, 5, 33, 43, 8, 10, 27, 0)
s = 32: (0, 9, 8, 16, 7, 7, 24, 45, 7, 10, 25, 0)
s = 33: (0, 13, 5, 14, 6, 5, 22, 20, 7, 19, 32, 0)
s = 34: (0, 15, 7, 15, 4, 5, 17, 44, 5, 13, 20, 0)
s = 35: (0, 13, 7, 29, 8, 5, 30, 30, 7, 11, 28, 0)
s = 36: (0, 10, 7, 18, 5, 4, 19, 38, 10, 11, 27, 0)
s = 37: (0, 12, 10, 13, 5, 4, 23, 34, 8, 15, 31, 0)
s = 38: (0, 14, 6, 15, 6, 3, 28, 27, 6, 10, 16, 0)
s = 39: (0, 15, 10, 14, 5, 4, 31, 21, 6, 11, 18, 0)
s = 40: (0, 18, 6, 20, 5, 4, 27, 37, 8, 7, 17, 0)
s = 41: (0, 17, 5, 18, 5, 4, 18, 26, 8, 21, 24, 0)
s = 42: (0, 15, 7, 18, 6, 4, 28, 25, 5, 16, 22, 0)
s = 43: (0, 13, 7, 13, 11, 4, 25, 28, 10, 7, 22, 0)
s = 44: (0, 18, 9, 27, 7, 3, 22, 34, 10, 10, 25, 0)
s = 45: (0, 10, 5, 17, 6, 5, 25, 19, 5, 12, 17, 0)
s = 46: (0, 7, 6, 13, 7, 5, 36, 32, 8, 11, 14, 0)
s = 47: (0, 12, 6, 16, 7, 5, 25, 26, 11, 8, 26, 0)
s = 48: (0, 7, 8, 19, 4, 6, 29, 25, 7, 13, 20, 0)
s = 49: (0, 14, 5, 18, 7, 5, 38, 30, 9, 19, 20, 0)
s = 50: (0, 9, 6, 24, 11, 6, 26, 38, 6, 12, 17, 0)
s = 51: (0, 10, 6, 12, 12, 7, 25, 17, 10, 14, 33, 0)
s = 52: (0, 11, 4, 35, 6, 7, 36, 17, 7, 8, 27, 0)
s = 53: (0, 9, 9, 20, 4, 4, 30, 23, 7, 15, 21, 0)
s = 54: (0, 9, 6, 25, 8, 3, 46, 26, 9, 13, 27, 0)
s = 55: (0, 17, 4, 23, 5, 4, 38, 25, 4, 12, 29, 0)
s = 56: (0, 15, 9, 16, 6, 3, 30, 25, 9, 13, 32, 0)
s = 57: (0, 12, 5, 23, 8, 3, 20, 17, 9, 9, 27, 0)
s = 58: (0, 15, 6, 16, 6, 7, 28, 17, 10, 8, 34, 0)
s = 59: (0, 14, 7, 26, 10, 3, 33, 32, 7, 9, 21, 0)
s = 60: (0, 12, 9, 17, 10, 4, 23, 18, 10, 14, 32, 0)
s = 61: (0, 16, 11, 15, 7, 3, 20, 28, 9, 13, 21, 0)
s = 62: (0, 10, 8, 17, 6, 3, 20, 21, 8, 15, 22, 0)
s = 63: (0, 14, 9, 23, 8, 4, 40, 32, 7, 17, 38, 0)
s = 64: (0, 11, 5, 27, 9, 4, 21, 16, 5, 14, 16, 0)
s = 65: (0, 12, 8, 22, 6, 5, 21, 27, 10, 13, 28, 0)
s = 66: (0, 10, 6, 28, 5, 4, 30, 23, 8, 7, 24, 0)
s = 67: (0, 13, 6, 24, 6, 4, 16, 31, 7, 18, 31, 0)
s = 68: (0, 8, 10, 18, 4, 5, 24, 29, 11, 14, 19, 0)
s = 69: (0, 8, 7, 17, 8, 7, 30, 28, 10, 17, 20, 0)
s = 70: (0, 15, 4, 29, 7, 6, 29, 29, 10, 10, 22, 0)
s = 71: (0, 16, 8, 12, 7, 4, 24, 18, 6, 17, 24, 0)
s = 72: (0, 8, 6, 37, 6, 4, 30, 21, 13, 10, 16, 0)
s = 73: (0, 10, 6, 16, 7, 4, 18, 20, 6, 19, 24, 0)
s = 74: (0, 18, 7, 17, 7, 4, 21, 23, 6, 12, 29, 0)
s = 75: (0, 11, 8, 16, 8, 4, 18, 19, 7, 12, 17, 0)
s = 76: (0, 15, 5, 19, 6, 6, 24, 21, 5, 11, 34, 0)
s = 77: (0, 8, 11, 20, 8, 4, 26, 28, 7, 9, 20, 0)
s = 78: (0, 16, 8, 10, 4, 4, 17, 23, 7, 11, 21, 0)
s = 79: (0, 11, 6, 16, 5, 6, 26, 27, 10, 10, 14, 0)
s = 80: (0, 12, 7, 21, 5, 4, 36, 31, 5, 20, 25, 0)
s = 81: (0, 13, 7, 21, 8, 4, 22, 26, 4, 13, 29, 0)
s = 82: (0, 18, 5, 12, 6, 4, 19, 15, 7, 12, 14, 0)
s = 83: (0, 8, 5, 15, 7, 4, 15, 18, 7, 16, 23, 0)
s = 84: (0, 11, 9, 21, 7, 6, 37, 25, 12, 16, 27, 0)
s = 85: (0, 14, 8, 15, 9, 4, 31, 43, 8, 11, 25, 0)
s = 86: (0, 14, 6, 26, 7, 5, 44, 19, 7, 11, 23, 0)
s = 87: (0, 10, 6, 21, 9, 4, 32, 25, 11, 12, 25, 0)
s = 88: (0, 8, 7, 15, 5, 3, 26, 31, 7, 9, 27, 0)
s = 89: (0, 13, 4, 19, 6, 4, 26, 19, 6, 14, 19, 0)
s = 90: (0, 9, 10, 20, 9, 6, 23, 31, 7, 7, 25, 0)
s = 91: (0, 9, 11, 17, 5, 5, 19, 37, 7, 9, 19, 0)
s = 92: (0, 12, 5, 24, 9, 4, 24, 31, 5, 16, 16, 0)
s = 93: (0, 8, 7, 19, 6, 3, 20, 22, 7, 11, 30, 0)
s = 94: (0, 9, 5, 11, 4, 5, 41, 29, 8, 8, 28, 0)
s = 95: (0, 8, 6, 25, 7, 6, 40, 27, 10, 16, 21, 0)
s = 96: (0, 9, 6, 21, 8, 4, 16, 29, 7, 10, 18, 0)
s = 97: (0, 20, 5, 14, 5, 4, 15, 21, 10, 19, 20, 0)
s = 98: (0, 10, 7, 26, 5, 6, 35, 28, 7, 14, 23, 0)
s = 99: (0, 12, 7, 25, 6, 6, 27, 28, 9, 15, 22, 0)
s = 100: (0, 14, 6, 27, 4, 4, 31, 28, 11, 10, 22, 0)
s = 101: (0, 9, 7, 18, 10, 4, 20, 22, 5, 17, 18, 0)
s = 102: (0, 16, 7, 13, 5, 3, 35, 16, 10, 9, 29, 0)
s = 103: (0, 8, 7, 18, 5, 4, 25, 19, 9, 17, 29, 0)
s = 104: (0, 9, 4, 16, 6, 4, 28, 47, 6, 12, 20, 0)
s = 105: (0, 15, 6, 21, 8, 3, 23, 37, 7, 14, 22, 0)
s = 106: (0, 14, 6, 13, 7, 3, 45, 27, 12, 17, 26, 0)
s = 107: (0, 9, 7, 25, 4, 5, 27, 29, 7, 9, 14, 0)
s = 108: (0, 10, 7, 20, 8, 5, 26, 17, 5, 14, 24, 0)
s = 109: (0, 13, 4, 15, 5, 3, 17, 26, 9, 10, 24, 0)
s = 110: (0, 19, 7, 31, 6, 4, 39, 21, 6, 13, 26, 0)
s = 111: (0, 10, 6, 12, 7, 5, 32, 26, 6, 9, 30, 0)
s = 112: (0, 13, 7, 24, 7, 4, 16, 27, 10, 11, 16, 0)
s = 113: (0, 14, 7, 24, 4, 4, 37, 25, 5, 9, 19, 0)
s = 114: (0, 15, 4, 17, 8, 6, 44, 36, 6, 10, 15, 0)
s = 115: (0, 11, 7, 12, 6, 4, 27, 21, 6, 11, 29, 0)
s = 116: (0, 16, 7, 27, 6, 4, 26, 31, 9, 18, 22, 0)
s = 117: (0, 11, 6, 21, 6, 4, 25, 22, 8, 15, 26, 0)
s = 118: (0, 14, 5, 19, 9, 3, 20, 21, 6, 23, 17, 0)
s = 119: (0, 9, 6, 20, 6, 5, 26, 20, 8, 7, 31, 0)
s = 120: (0, 13, 8, 18, 8, 4, 24, 24, 6, 9, 19, 0)
s = 121: (0, 13, 8, 27, 6, 6, 29, 40, 9, 10, 24, 0)
s = 122: (0, 15, 8, 15, 6, 4, 29, 18, 13, 14, 22, 0)
s = 123: (0, 12, 9, 22, 7, 4, 19, 35, 7, 8, 43, 0)
s = 124: (0, 14, 4, 24, 6, 4, 25, 21, 8, 11, 16, 0)
s = 125: (0, 11, 6, 24, 8, 4, 21, 25, 7, 9, 33, 0)
s = 126: (0, 9, 9, 23, 4, 6, 39, 29, 8, 16, 17, 0)
s = 127: (0, 15, 6, 15, 7, 4, 30, 25, 9, 9, 25, 0)
s = 128: (0, 10, 4, 17, 5, 4, 35, 24, 5, 16, 15, 0)
s = 129: (0, 8, 8, 16, 4, 5, 27, 36, 6, 11, 19, 0)
s = 130: (0, 14, 7, 17, 10, 7, 22, 35, 8, 10, 17, 0)
s = 131: (0, 12, 5, 14, 9, 4, 17, 22, 8, 13, 25, 0)
s = 132: (0, 15, 5, 13, 9, 5, 18, 43, 10, 17, 18, 0)
s = 133: (0, 9, 4, 17, 5, 3, 42, 19, 5, 13, 21, 0)
s = 134: (0, 14, 6, 12, 6, 4, 26, 33, 9, 12, 27, 0)
s = 135: (0, 14, 8, 16, 8, 4, 25, 32, 5, 13, 25, 0)
s = 136: (0, 18, 6, 12, 7, 3, 15, 23, 7, 10, 17, 0)
s = 137: (0, 14, 6, 16, 8, 4, 17, 18, 5, 13, 19, 0)
s = 138: (0, 10, 5, 18, 7, 5, 36, 19, 6, 17, 21, 0)
s = 139: (0, 10, 7, 18, 7, 4, 35, 25, 8, 14, 24, 0)
s = 140: (0, 12, 5, 15, 5, 6, 16, 33, 10, 16, 35, 0)
s = 141: (0, 11, 4, 15, 9, 4, 22, 28, 6, 17, 21, 0)
s = 142: (0, 12, 5, 26, 7, 6, 33, 32, 5, 16, 33, 0)
s = 143: (0, 11, 5, 22, 9, 3, 27, 37, 7, 11, 22, 0)
s = 144: (0, 11, 10, 29, 6, 4, 21, 32, 6, 12, 31, 0)
s = 145: (0, 8, 8, 18, 9, 3, 29, 24, 5, 9, 23, 0)
s = 146: (0, 13, 6, 26, 5, 6, 20, 29, 9, 8, 19, 0)
s = 147: (0, 17, 8, 19, 6, 5, 19, 26, 8, 15, 26, 0)
s = 148: (0, 14, 6, 13, 8, 4, 41, 28, 8, 12, 22, 0)
s = 149: (0, 11, 7, 17, 5, 4, 25, 26, 6, 13, 30, 0)
s = 150: (0, 9, 5, 12, 6, 5, 22, 18, 8, 13, 28, 0)
s = 151: (0, 11, 5, 20, 6, 4, 17, 28, 9, 14, 39, 0)
s = 152: (0, 14, 6, 24, 7, 4, 19, 24, 8, 14, 29, 0)
s = 153: (0, 11, 6, 12, 11, 4, 46, 25, 6, 8, 20, 0)
s = 154: (0, 12, 6, 23, 5, 6, 20, 51, 6, 13, 25, 0)
s = 155: (0, 12, 11, 18, 7, 4, 30, 41, 8, 9, 18, 0)
s = 156: (0, 9, 10, 15, 6, 5, 27, 37, 5, 9, 15, 0)
s = 157: (0, 9, 5, 22, 5, 6, 26, 33, 9, 16, 19, 0)
s = 158: (0, 12, 5, 17, 4, 4, 31, 29, 5, 12, 35, 0)
s = 159: (0, 13, 8, 28, 6, 5, 21, 23, 10, 14, 25, 0)
s = 160: (0, 14, 5, 22, 8, 4, 36, 18, 13, 11, 31, 0)
s = 161: (0, 7, 7, 18, 5, 7, 21, 21, 7, 12, 30, 0)
s = 162: (0, 12, 5, 20, 5, 6, 32, 26, 12, 14, 25, 0)
s = 163: (0, 17, 6, 25, 4, 5, 32, 42, 10, 9, 19, 0)
s = 164: (0, 14, 10, 25, 7, 3, 37, 33, 10, 11, 23, 0)
s = 165: (0, 12, 4, 13, 8, 4, 29, 26, 8, 11, 24, 0)
s = 166: (0, 8, 8, 30, 7, 5, 26, 28, 6, 10, 29, 0)
s = 167: (0, 16, 4, 21, 8, 6, 27, 23, 12, 18, 25, 0)
s = 168: (0, 10, 10, 14, 5, 4, 33, 31, 8, 16, 24, 0)
s = 169: (0, 19, 12, 17, 7, 4, 31, 19, 11, 8, 17, 0)
s = 170: (0, 9, 11, 15, 5, 6, 40, 32, 6, 8, 13, 0)
s = 171: (0, 10, 5, 23, 5, 4, 18, 16, 6, 8, 22, 0)
s = 172: (0, 8, 8, 14, 7, 4, 33, 29, 7, 10, 20, 0)
s = 173: (0, 10, 5, 17, 10, 6, 15, 15, 10, 9, 25, 0)
s = 174: (0, 10, 5, 15, 7, 6, 23, 27, 8, 11, 24, 0)
s = 175: (0, 18, 9, 11, 8, 4, 38, 18, 5, 11, 22, 0)
s = 176: (0, 15, 7, 20, 6, 3, 31, 34, 8, 11, 17, 0)
s = 177: (0, 13, 5, 18, 5, 5, 28, 42, 6, 14, 25, 0)
s = 178: (0, 10, 6, 28, 6, 4, 19, 23, 12, 12, 17, 0)
s = 179: (0, 10, 9, 20, 5, 4, 35, 27, 10, 9, 21, 0)
s = 180: (0, 18, 6, 19, 6, 6, 27, 20, 7, 11, 23, 0)
s = 181: (0, 13, 6, 14, 5, 4, 22, 24, 8, 19, 47, 0)
s = 182: (0, 14, 5, 30, 5, 6, 41, 37, 9, 9, 22, 0)
s = 183: (0, 14, 9, 22, 7, 6, 22, 40, 8, 15, 16, 0)
s = 184: (0, 8, 6, 13, 7, 5, 19, 18, 10, 11, 33, 0)
s = 185: (0, 12, 10, 13, 7, 4, 33, 37, 11, 8, 33, 0)
s = 186: (0, 12, 8, 12, 5, 4, 23, 24, 8, 19, 18, 0)
s = 187: (0, 21, 7, 24, 5, 4, 21, 32, 7, 18, 19, 0)
s = 188: (0, 10, 7, 20, 7, 5, 25, 18, 10, 17, 22, 0)
s = 189: (0, 11, 7, 18, 8, 4, 23, 22, 11, 10, 24, 0)
s = 190: (0, 17, 7, 22, 6, 4, 28, 27, 10, 13, 28, 0)
s = 191: (0, 10, 9, 18, 4, 4, 38, 27, 5, 12, 18, 0)
s = 192: (0, 14, 5, 14, 5, 7, 27, 42, 9, 16, 24, 0)
s = 193: (0, 11, 9, 15, 7, 5, 19, 37, 8, 8, 16, 0)
s = 194: (0, 12, 7, 25, 5, 4, 16, 34, 9, 13, 33, 0)
s = 195: (0, 10, 9, 17, 8, 5, 31, 39, 8, 11, 25, 0)
s = 196: (0, 12, 8, 18, 8, 4, 15, 26, 7, 11, 29, 0)
s = 197: (0, 12, 6, 14, 7, 4, 37, 35, 6, 16, 24, 0)
s = 198: (0, 13, 8, 15, 5, 7, 36, 24, 7, 16, 38, 0)
s = 199: (0, 8, 5, 17, 5, 5, 20, 26, 5, 9, 21, 0)
s = 200: (0, 12, 4, 20, 7, 7, 24, 23, 7, 11, 24, 0)
------------------------------------------------------------------------
RESOURCE k = 2
s = 1: (0, 12, 0, 0, 11, 5, 0, 27, 9, 9, 0, 0)
s = 2: (0, 30, 0, 0, 13, 5, 0, 31, 9, 16, 0, 0)
s = 3: (0, 25, 0, 0, 8, 6, 0, 21, 8, 11, 0, 0)
s = 4: (0, 20, 0, 0, 9, 4, 0, 30, 9, 9, 0, 0)
s = 5: (0, 12, 0, 0, 6, 4, 0, 38, 8, 20, 0, 0)
s = 6: (0, 15, 0, 0, 8, 4, 0, 35, 10, 9, 0, 0)
s = 7: (0, 22, 0, 0, 8, 4, 0, 26, 10, 13, 0, 0)
s = 8: (0, 18, 0, 0, 10, 6, 0, 28, 15, 12, 0, 0)
s = 9: (0, 18, 0, 0, 14, 5, 0, 24, 8, 22, 0, 0)
s = 10: (0, 11, 0, 0, 10, 3, 0, 21, 10, 13, 0, 0)
s = 11: (0, 21, 0, 0, 6, 3, 0, 25, 15, 21, 0, 0)
s = 12: (0, 14, 0, 0, 7, 5, 0, 17, 8, 13, 0, 0)
s = 13: (0, 11, 0, 0, 8, 7, 0, 14, 9, 22, 0, 0)
s = 14: (0, 19, 0, 0, 5, 3, 0, 22, 15, 10, 0, 0)
s = 15: (0, 20, 0, 0, 13, 3, 0, 19, 7, 17, 0, 0)
s = 16: (0, 18, 0, 0, 9, 4, 0, 39, 7, 13, 0, 0)
s = 17: (0, 21, 0, 0, 8, 3, 0, 33, 10, 12, 0, 0)
s = 18: (0, 16, 0, 0, 10, 4, 0, 20, 10, 21, 0, 0)
s = 19: (0, 12, 0, 0, 12, 6, 0, 41, 9, 10, 0, 0)
s = 20: (0, 21, 0, 0, 9, 3, 0, 20, 12, 8, 0, 0)
s = 21: (0, 20, 0, 0, 6, 5, 0, 15, 7, 12, 0, 0)
s = 22: (0, 26, 0, 0, 8, 4, 0, 26, 8, 10, 0, 0)
s = 23: (0, 19, 0, 0, 10, 3, 0, 25, 14, 14, 0, 0)
s = 24: (0, 18, 0, 0, 13, 3, 0, 15, 8, 13, 0, 0)
s = 25: (0, 21, 0, 0, 9, 5, 0, 25, 8, 15, 0, 0)
s = 26: (0, 12, 0, 0, 11, 4, 0, 21, 10, 16, 0, 0)
s = 27: (0, 19, 0, 0, 7, 7, 0, 18, 6, 15, 0, 0)
s = 28: (0, 19, 0, 0, 11, 3, 0, 24, 6, 10, 0, 0)
s = 29: (0, 14, 0, 0, 8, 5, 0, 26, 10, 10, 0, 0)
s = 30: (0, 12, 0, 0, 14, 7, 0, 23, 10, 10, 0, 0)
s = 31: (0, 11, 0, 0, 8, 5, 0, 39, 11, 11, 0, 0)
s = 32: (0, 13, 0, 0, 9, 7, 0, 40, 9, 12, 0, 0)
s = 33: (0, 19, 0, 0, 7, 5, 0, 18, 9, 22, 0, 0)
s = 34: (0, 23, 0, 0, 6, 5, 0, 39, 7, 15, 0, 0)
s = 35: (0, 19, 0, 0, 10, 5, 0, 27, 9, 13, 0, 0)
s = 36: (0, 14, 0, 0, 6, 4, 0, 34, 14, 12, 0, 0)
s = 37: (0, 18, 0, 0, 7, 4, 0, 30, 12, 17, 0, 0)
s = 38: (0, 21, 0, 0, 7, 3, 0, 24, 8, 11, 0, 0)
s = 39: (0, 23, 0, 0, 7, 4, 0, 19, 8, 13, 0, 0)
s = 40: (0, 27, 0, 0, 6, 4, 0, 33, 11, 8, 0, 0)
s = 41: (0, 26, 0, 0, 6, 4, 0, 23, 11, 24, 0, 0)
s = 42: (0, 22, 0, 0, 8, 4, 0, 23, 7, 18, 0, 0)
s = 43: (0, 20, 0, 0, 14, 4, 0, 25, 14, 9, 0, 0)
s = 44: (0, 27, 0, 0, 10, 3, 0, 30, 14, 12, 0, 0)
s = 45: (0, 15, 0, 0, 8, 5, 0, 17, 7, 14, 0, 0)
s = 46: (0, 11, 0, 0, 9, 5, 0, 29, 12, 13, 0, 0)
s = 47: (0, 17, 0, 0, 10, 5, 0, 24, 16, 10, 0, 0)
s = 48: (0, 11, 0, 0, 6, 6, 0, 22, 9, 15, 0, 0)
s = 49: (0, 21, 0, 0, 9, 5, 0, 26, 12, 22, 0, 0)
s = 50: (0, 13, 0, 0, 14, 6, 0, 34, 9, 14, 0, 0)
s = 51: (0, 15, 0, 0, 16, 7, 0, 15, 14, 16, 0, 0)
s = 52: (0, 16, 0, 0, 8, 7, 0, 15, 9, 10, 0, 0)
s = 53: (0, 14, 0, 0, 6, 4, 0, 20, 10, 17, 0, 0)
s = 54: (0, 14, 0, 0, 11, 3, 0, 23, 13, 15, 0, 0)
s = 55: (0, 25, 0, 0, 6, 4, 0, 22, 6, 14, 0, 0)
s = 56: (0, 22, 0, 0, 8, 3, 0, 23, 13, 15, 0, 0)
s = 57: (0, 17, 0, 0, 11, 3, 0, 15, 13, 10, 0, 0)
s = 58: (0, 23, 0, 0, 7, 7, 0, 15, 14, 10, 0, 0)
s = 59: (0, 20, 0, 0, 13, 3, 0, 29, 10, 10, 0, 0)
s = 60: (0, 17, 0, 0, 13, 4, 0, 16, 14, 16, 0, 0)
s = 61: (0, 24, 0, 0, 9, 3, 0, 25, 13, 16, 0, 0)
s = 62: (0, 14, 0, 0, 8, 3, 0, 19, 11, 17, 0, 0)
s = 63: (0, 21, 0, 0, 11, 4, 0, 29, 10, 20, 0, 0)
s = 64: (0, 16, 0, 0, 12, 4, 0, 15, 7, 16, 0, 0)
s = 65: (0, 18, 0, 0, 7, 5, 0, 24, 14, 15, 0, 0)
s = 66: (0, 14, 0, 0, 7, 4, 0, 20, 12, 8, 0, 0)
s = 67: (0, 19, 0, 0, 7, 4, 0, 28, 10, 21, 0, 0)
s = 68: (0, 12, 0, 0, 5, 5, 0, 26, 15, 17, 0, 0)
s = 69: (0, 12, 0, 0, 10, 7, 0, 25, 14, 20, 0, 0)
s = 70: (0, 22, 0, 0, 9, 6, 0, 26, 14, 12, 0, 0)
s = 71: (0, 23, 0, 0, 9, 4, 0, 16, 9, 20, 0, 0)
s = 72: (0, 12, 0, 0, 8, 4, 0, 19, 18, 12, 0, 0)
s = 73: (0, 15, 0, 0, 9, 4, 0, 18, 9, 22, 0, 0)
s = 74: (0, 26, 0, 0, 9, 4, 0, 20, 9, 14, 0, 0)
s = 75: (0, 16, 0, 0, 11, 4, 0, 17, 10, 13, 0, 0)
s = 76: (0, 23, 0, 0, 7, 6, 0, 19, 7, 13, 0, 0)
s = 77: (0, 12, 0, 0, 10, 4, 0, 25, 9, 11, 0, 0)
s = 78: (0, 24, 0, 0, 5, 4, 0, 21, 9, 13, 0, 0)
s = 79: (0, 16, 0, 0, 7, 6, 0, 24, 14, 12, 0, 0)
s = 80: (0, 17, 0, 0, 6, 4, 0, 28, 7, 23, 0, 0)
s = 81: (0, 19, 0, 0, 10, 4, 0, 24, 6, 16, 0, 0)
s = 82: (0, 26, 0, 0, 7, 4, 0, 14, 9, 14, 0, 0)
s = 83: (0, 11, 0, 0, 9, 4, 0, 16, 9, 19, 0, 0)
s = 84: (0, 17, 0, 0, 9, 6, 0, 22, 16, 19, 0, 0)
s = 85: (0, 20, 0, 0, 12, 4, 0, 39, 11, 12, 0, 0)
s = 86: (0, 20, 0, 0, 9, 5, 0, 17, 10, 13, 0, 0)
s = 87: (0, 14, 0, 0, 11, 4, 0, 22, 16, 14, 0, 0)
s = 88: (0, 12, 0, 0, 6, 3, 0, 28, 10, 10, 0, 0)
s = 89: (0, 20, 0, 0, 7, 4, 0, 17, 9, 16, 0, 0)
s = 90: (0, 13, 0, 0, 11, 6, 0, 27, 9, 9, 0, 0)
s = 91: (0, 13, 0, 0, 6, 5, 0, 33, 10, 10, 0, 0)
s = 92: (0, 17, 0, 0, 12, 4, 0, 28, 7, 18, 0, 0)
s = 93: (0, 12, 0, 0, 8, 3, 0, 20, 10, 12, 0, 0)
s = 94: (0, 14, 0, 0, 6, 5, 0, 26, 11, 10, 0, 0)
s = 95: (0, 11, 0, 0, 9, 6, 0, 24, 14, 19, 0, 0)
s = 96: (0, 14, 0, 0, 10, 4, 0, 26, 10, 12, 0, 0)
s = 97: (0, 30, 0, 0, 6, 4, 0, 19, 13, 22, 0, 0)
s = 98: (0, 14, 0, 0, 7, 6, 0, 25, 10, 17, 0, 0)
s = 99: (0, 18, 0, 0, 8, 6, 0, 25, 13, 17, 0, 0)
s = 100: (0, 21, 0, 0, 6, 4, 0, 25, 16, 11, 0, 0)
s = 101: (0, 14, 0, 0, 13, 4, 0, 19, 7, 20, 0, 0)
s = 102: (0, 23, 0, 0, 6, 3, 0, 14, 15, 10, 0, 0)
s = 103: (0, 11, 0, 0, 7, 4, 0, 17, 13, 20, 0, 0)
s = 104: (0, 14, 0, 0, 8, 4, 0, 42, 9, 14, 0, 0)
s = 105: (0, 23, 0, 0, 11, 3, 0, 33, 9, 16, 0, 0)
s = 106: (0, 21, 0, 0, 10, 3, 0, 24, 17, 20, 0, 0)
s = 107: (0, 14, 0, 0, 6, 5, 0, 26, 10, 10, 0, 0)
s = 108: (0, 15, 0, 0, 10, 5, 0, 15, 7, 16, 0, 0)
s = 109: (0, 19, 0, 0, 6, 3, 0, 23, 13, 11, 0, 0)
s = 110: (0, 28, 0, 0, 7, 4, 0, 19, 8, 16, 0, 0)
s = 111: (0, 15, 0, 0, 9, 5, 0, 23, 9, 10, 0, 0)
s = 112: (0, 19, 0, 0, 10, 4, 0, 24, 14, 13, 0, 0)
s = 113: (0, 21, 0, 0, 6, 4, 0, 23, 7, 10, 0, 0)
s = 114: (0, 23, 0, 0, 10, 6, 0, 32, 8, 12, 0, 0)
s = 115: (0, 16, 0, 0, 7, 4, 0, 19, 8, 12, 0, 0)
s = 116: (0, 24, 0, 0, 8, 4, 0, 28, 12, 21, 0, 0)
s = 117: (0, 16, 0, 0, 8, 4, 0, 19, 11, 18, 0, 0)
s = 118: (0, 21, 0, 0, 12, 3, 0, 19, 8, 27, 0, 0)
s = 119: (0, 14, 0, 0, 8, 5, 0, 18, 12, 8, 0, 0)
s = 120: (0, 20, 0, 0, 10, 4, 0, 22, 8, 10, 0, 0)
s = 121: (0, 20, 0, 0, 8, 6, 0, 36, 13, 11, 0, 0)
s = 122: (0, 23, 0, 0, 8, 4, 0, 16, 18, 16, 0, 0)
s = 123: (0, 18, 0, 0, 9, 4, 0, 31, 9, 10, 0, 0)
s = 124: (0, 21, 0, 0, 7, 4, 0, 18, 12, 13, 0, 0)
s = 125: (0, 16, 0, 0, 11, 4, 0, 22, 10, 11, 0, 0)
s = 126: (0, 14, 0, 0, 6, 6, 0, 25, 11, 19, 0, 0)
s = 127: (0, 22, 0, 0, 9, 4, 0, 23, 12, 10, 0, 0)
s = 128: (0, 15, 0, 0, 7, 4, 0, 22, 7, 18, 0, 0)
s = 129: (0, 12, 0, 0, 5, 5, 0, 32, 9, 12, 0, 0)
s = 130: (0, 20, 0, 0, 13, 7, 0, 31, 11, 12, 0, 0)
s = 131: (0, 18, 0, 0, 11, 4, 0, 19, 11, 15, 0, 0)
s = 132: (0, 22, 0, 0, 11, 5, 0, 38, 14, 20, 0, 0)
s = 133: (0, 14, 0, 0, 6, 3, 0, 17, 8, 15, 0, 0)
s = 134: (0, 20, 0, 0, 8, 4, 0, 29, 12, 14, 0, 0)
s = 135: (0, 21, 0, 0, 11, 4, 0, 28, 6, 15, 0, 0)
s = 136: (0, 27, 0, 0, 9, 3, 0, 21, 9, 12, 0, 0)
s = 137: (0, 21, 0, 0, 10, 4, 0, 16, 7, 16, 0, 0)
s = 138: (0, 14, 0, 0, 9, 5, 0, 17, 9, 20, 0, 0)
s = 139: (0, 15, 0, 0, 9, 4, 0, 22, 11, 17, 0, 0)
s = 140: (0, 18, 0, 0, 6, 6, 0, 29, 14, 19, 0, 0)
s = 141: (0, 16, 0, 0, 12, 4, 0, 25, 9, 20, 0, 0)
s = 142: (0, 17, 0, 0, 9, 6, 0, 28, 8, 18, 0, 0)
s = 143: (0, 16, 0, 0, 12, 3, 0, 33, 10, 12, 0, 0)
s = 144: (0, 16, 0, 0, 8, 4, 0, 29, 8, 14, 0, 0)
s = 145: (0, 12, 0, 0, 12, 3, 0, 22, 7, 11, 0, 0)
s = 146: (0, 20, 0, 0, 7, 6, 0, 26, 13, 9, 0, 0)
s = 147: (0, 26, 0, 0, 8, 5, 0, 23, 11, 18, 0, 0)
s = 148: (0, 21, 0, 0, 11, 4, 0, 25, 11, 14, 0, 0)
s = 149: (0, 16, 0, 0, 7, 4, 0, 23, 9, 15, 0, 0)
s = 150: (0, 13, 0, 0, 8, 5, 0, 16, 11, 15, 0, 0)
s = 151: (0, 16, 0, 0, 7, 4, 0, 25, 12, 16, 0, 0)
s = 152: (0, 21, 0, 0, 9, 4, 0, 21, 11, 16, 0, 0)
s = 153: (0, 16, 0, 0, 15, 4, 0, 22, 8, 10, 0, 0)
s = 154: (0, 18, 0, 0, 7, 6, 0, 45, 8, 15, 0, 0)
s = 155: (0, 18, 0, 0, 9, 4, 0, 36, 11, 10, 0, 0)
s = 156: (0, 13, 0, 0, 8, 5, 0, 33, 6, 10, 0, 0)
s = 157: (0, 14, 0, 0, 7, 6, 0, 29, 12, 19, 0, 0)
s = 158: (0, 17, 0, 0, 5, 4, 0, 26, 6, 14, 0, 0)
s = 159: (0, 19, 0, 0, 8, 5, 0, 21, 14, 16, 0, 0)
s = 160: (0, 21, 0, 0, 10, 4, 0, 16, 18, 13, 0, 0)
s = 161: (0, 11, 0, 0, 7, 7, 0, 19, 10, 14, 0, 0)
s = 162: (0, 18, 0, 0, 6, 6, 0, 23, 16, 17, 0, 0)
s = 163: (0, 25, 0, 0, 5, 5, 0, 37, 14, 11, 0, 0)
s = 164: (0, 21, 0, 0, 9, 3, 0, 29, 14, 12, 0, 0)
s = 165: (0, 18, 0, 0, 11, 4, 0, 24, 11, 13, 0, 0)
s = 166: (0, 12, 0, 0, 9, 5, 0, 25, 8, 12, 0, 0)
s = 167: (0, 24, 0, 0, 10, 6, 0, 20, 16, 21, 0, 0)
s = 168: (0, 15, 0, 0, 6, 4, 0, 28, 11, 18, 0, 0)
s = 169: (0, 29, 0, 0, 9, 4, 0, 17, 16, 10, 0, 0)
s = 170: (0, 13, 0, 0, 7, 6, 0, 28, 9, 9, 0, 0)
s = 171: (0, 15, 0, 0, 7, 4, 0, 14, 9, 9, 0, 0)
s = 172: (0, 12, 0, 0, 9, 4, 0, 26, 9, 11, 0, 0)
s = 173: (0, 15, 0, 0, 13, 6, 0, 13, 14, 10, 0, 0)
s = 174: (0, 15, 0, 0, 9, 6, 0, 24, 11, 12, 0, 0)
s = 175: (0, 26, 0, 0, 10, 4, 0, 16, 7, 13, 0, 0)
s = 176: (0, 23, 0, 0, 8, 3, 0, 30, 11, 13, 0, 0)
s = 177: (0, 20, 0, 0, 6, 5, 0, 38, 8, 17, 0, 0)
s = 178: (0, 14, 0, 0, 8, 4, 0, 21, 17, 14, 0, 0)
s = 179: (0, 14, 0, 0, 6, 4, 0, 24, 14, 10, 0, 0)
s = 180: (0, 26, 0, 0, 8, 6, 0, 18, 10, 13, 0, 0)
s = 181: (0, 19, 0, 0, 6, 4, 0, 21, 11, 22, 0, 0)
s = 182: (0, 20, 0, 0, 7, 6, 0, 33, 12, 10, 0, 0)
s = 183: (0, 21, 0, 0, 10, 6, 0, 35, 12, 17, 0, 0)
s = 184: (0, 12, 0, 0, 10, 5, 0, 16, 14, 12, 0, 0)
s = 185: (0, 17, 0, 0, 9, 4, 0, 33, 15, 9, 0, 0)
s = 186: (0, 17, 0, 0, 6, 4, 0, 21, 11, 22, 0, 0)
s = 187: (0, 31, 0, 0, 7, 4, 0, 29, 9, 21, 0, 0)
s = 188: (0, 15, 0, 0, 9, 5, 0, 16, 14, 19, 0, 0)
s = 189: (0, 17, 0, 0, 10, 4, 0, 19, 15, 11, 0, 0)
s = 190: (0, 25, 0, 0, 8, 4, 0, 24, 14, 16, 0, 0)
s = 191: (0, 15, 0, 0, 5, 4, 0, 24, 7, 14, 0, 0)
s = 192: (0, 21, 0, 0, 7, 7, 0, 37, 13, 19, 0, 0)
s = 193: (0, 16, 0, 0, 10, 5, 0, 33, 12, 9, 0, 0)
s = 194: (0, 17, 0, 0, 7, 4, 0, 30, 13, 15, 0, 0)
s = 195: (0, 15, 0, 0, 10, 5, 0, 35, 11, 13, 0, 0)
s = 196: (0, 18, 0, 0, 10, 4, 0, 23, 9, 13, 0, 0)
s = 197: (0, 18, 0, 0, 9, 4, 0, 31, 8, 19, 0, 0)
s = 198: (0, 19, 0, 0, 6, 7, 0, 21, 10, 19, 0, 0)
s = 199: (0, 12, 0, 0, 6, 5, 0, 23, 7, 10, 0, 0)
s = 200: (0, 18, 0, 0, 10, 7, 0, 20, 10, 13, 0, 0)
------------------------------------------------------------------------
RESOURCE k = 3
s = 1: (0, 0, 31, 19, 0, 0, 21, 0, 0, 0, 45, 0)
s = 2: (0, 0, 24, 12, 0, 0, 12, 0, 0, 0, 63, 0)
s = 3: (0, 0, 15, 15, 0, 0, 17, 0, 0, 0, 55, 0)
s = 4: (0, 0, 16, 17, 0, 0, 14, 0, 0, 0, 41, 0)
s = 5: (0, 0, 30, 21, 0, 0, 17, 0, 0, 0, 43, 0)
s = 6: (0, 0, 16, 19, 0, 0, 14, 0, 0, 0, 32, 0)
s = 7: (0, 0, 24, 26, 0, 0, 13, 0, 0, 0, 43, 0)
s = 8: (0, 0, 32, 24, 0, 0, 20, 0, 0, 0, 74, 0)
s = 9: (0, 0, 23, 19, 0, 0, 22, 0, 0, 0, 70, 0)
s = 10: (0, 0, 20, 21, 0, 0, 9, 0, 0, 0, 46, 0)
s = 11: (0, 0, 15, 18, 0, 0, 11, 0, 0, 0, 45, 0)
s = 12: (0, 0, 23, 10, 0, 0, 21, 0, 0, 0, 55, 0)
s = 13: (0, 0, 18, 15, 0, 0, 13, 0, 0, 0, 55, 0)
s = 14: (0, 0, 31, 12, 0, 0, 15, 0, 0, 0, 49, 0)
s = 15: (0, 0, 25, 15, 0, 0, 29, 0, 0, 0, 51, 0)
s = 16: (0, 0, 36, 9, 0, 0, 20, 0, 0, 0, 54, 0)
s = 17: (0, 0, 26, 17, 0, 0, 13, 0, 0, 0, 86, 0)
s = 18: (0, 0, 24, 16, 0, 0, 21, 0, 0, 0, 64, 0)
s = 19: (0, 0, 30, 13, 0, 0, 17, 0, 0, 0, 52, 0)
s = 20: (0, 0, 19, 21, 0, 0, 18, 0, 0, 0, 47, 0)
s = 21: (0, 0, 23, 25, 0, 0, 14, 0, 0, 0, 47, 0)
s = 22: (0, 0, 18, 17, 0, 0, 14, 0, 0, 0, 53, 0)
s = 23: (0, 0, 19, 13, 0, 0, 13, 0, 0, 0, 56, 0)
s = 24: (0, 0, 27, 25, 0, 0, 13, 0, 0, 0, 45, 0)
s = 25: (0, 0, 16, 24, 0, 0, 12, 0, 0, 0, 28, 0)
s = 26: (0, 0, 16, 20, 0, 0, 16, 0, 0, 0, 77, 0)
s = 27: (0, 0, 23, 20, 0, 0, 18, 0, 0, 0, 59, 0)
s = 28: (0, 0, 32, 13, 0, 0, 8, 0, 0, 0, 43, 0)
s = 29: (0, 0, 18, 26, 0, 0, 13, 0, 0, 0, 36, 0)
s = 30: (0, 0, 28, 20, 0, 0, 22, 0, 0, 0, 64, 0)
s = 31: (0, 0, 18, 24, 0, 0, 18, 0, 0, 0, 54, 0)
s = 32: (0, 0, 31, 14, 0, 0, 14, 0, 0, 0, 49, 0)
s = 33: (0, 0, 20, 13, 0, 0, 13, 0, 0, 0, 63, 0)
s = 34: (0, 0, 26, 14, 0, 0, 9, 0, 0, 0, 40, 0)
s = 35: (0, 0, 26, 26, 0, 0, 17, 0, 0, 0, 56, 0)
s = 36: (0, 0, 26, 16, 0, 0, 11, 0, 0, 0, 53, 0)
s = 37: (0, 0, 40, 12, 0, 0, 13, 0, 0, 0, 62, 0)
s = 38: (0, 0, 24, 14, 0, 0, 16, 0, 0, 0, 32, 0)
s = 39: (0, 0, 38, 12, 0, 0, 18, 0, 0, 0, 36, 0)
s = 40: (0, 0, 24, 18, 0, 0, 15, 0, 0, 0, 34, 0)
s = 41: (0, 0, 20, 16, 0, 0, 10, 0, 0, 0, 47, 0)
s = 42: (0, 0, 26, 16, 0, 0, 16, 0, 0, 0, 44, 0)
s = 43: (0, 0, 26, 11, 0, 0, 14, 0, 0, 0, 43, 0)
s = 44: (0, 0, 33, 24, 0, 0, 12, 0, 0, 0, 50, 0)
s = 45: (0, 0, 17, 15, 0, 0, 14, 0, 0, 0, 33, 0)
s = 46: (0, 0, 23, 12, 0, 0, 20, 0, 0, 0, 28, 0)
s = 47: (0, 0, 23, 14, 0, 0, 14, 0, 0, 0, 51, 0)
s = 48: (0, 0, 31, 17, 0, 0, 16, 0, 0, 0, 39, 0)
s = 49: (0, 0, 17, 16, 0, 0, 21, 0, 0, 0, 40, 0)
s = 50: (0, 0, 24, 21, 0, 0, 14, 0, 0, 0, 34, 0)
s = 51: (0, 0, 23, 11, 0, 0, 14, 0, 0, 0, 65, 0)
s = 52: (0, 0, 15, 31, 0, 0, 20, 0, 0, 0, 53, 0)
s = 53: (0, 0, 36, 18, 0, 0, 17, 0, 0, 0, 41, 0)
s = 54: (0, 0, 22, 22, 0, 0, 26, 0, 0, 0, 53, 0)
s = 55: (0, 0, 15, 21, 0, 0, 21, 0, 0, 0, 58, 0)
s = 56: (0, 0, 33, 15, 0, 0, 17, 0, 0, 0, 64, 0)
s = 57: (0, 0, 20, 20, 0, 0, 11, 0, 0, 0, 54, 0)
s = 58: (0, 0, 24, 14, 0, 0, 16, 0, 0, 0, 68, 0)
s = 59: (0, 0, 26, 23, 0, 0, 18, 0, 0, 0, 42, 0)
s = 60: (0, 0, 34, 15, 0, 0, 13, 0, 0, 0, 64, 0)
s = 61: (0, 0, 41, 14, 0, 0, 11, 0, 0, 0, 42, 0)
s = 62: (0, 0, 32, 15, 0, 0, 11, 0, 0, 0, 43, 0)
s = 63: (0, 0, 34, 21, 0, 0, 23, 0, 0, 0, 76, 0)
s = 64: (0, 0, 20, 24, 0, 0, 12, 0, 0, 0, 31, 0)
s = 65: (0, 0, 29, 19, 0, 0, 12, 0, 0, 0, 56, 0)
s = 66: (0, 0, 24, 25, 0, 0, 17, 0, 0, 0, 48, 0)
s = 67: (0, 0, 22, 21, 0, 0, 9, 0, 0, 0, 62, 0)
s = 68: (0, 0, 39, 16, 0, 0, 14, 0, 0, 0, 37, 0)
s = 69: (0, 0, 26, 16, 0, 0, 17, 0, 0, 0, 39, 0)
s = 70: (0, 0, 16, 26, 0, 0, 16, 0, 0, 0, 43, 0)
s = 71: (0, 0, 29, 11, 0, 0, 14, 0, 0, 0, 47, 0)
s = 72: (0, 0, 23, 33, 0, 0, 17, 0, 0, 0, 31, 0)
s = 73: (0, 0, 21, 14, 0, 0, 10, 0, 0, 0, 48, 0)
s = 74: (0, 0, 27, 15, 0, 0, 12, 0, 0, 0, 58, 0)
s = 75: (0, 0, 31, 15, 0, 0, 10, 0, 0, 0, 33, 0)
s = 76: (0, 0, 18, 17, 0, 0, 14, 0, 0, 0, 67, 0)
s = 77: (0, 0, 44, 18, 0, 0, 15, 0, 0, 0, 39, 0)
s = 78: (0, 0, 29, 9, 0, 0, 10, 0, 0, 0, 41, 0)
s = 79: (0, 0, 22, 14, 0, 0, 14, 0, 0, 0, 27, 0)
s = 80: (0, 0, 28, 19, 0, 0, 20, 0, 0, 0, 49, 0)
s = 81: (0, 0, 25, 19, 0, 0, 12, 0, 0, 0, 58, 0)
s = 82: (0, 0, 20, 10, 0, 0, 11, 0, 0, 0, 27, 0)
s = 83: (0, 0, 19, 13, 0, 0, 8, 0, 0, 0, 45, 0)
s = 84: (0, 0, 34, 19, 0, 0, 21, 0, 0, 0, 54, 0)
s = 85: (0, 0, 32, 13, 0, 0, 18, 0, 0, 0, 49, 0)
s = 86: (0, 0, 22, 23, 0, 0, 25, 0, 0, 0, 46, 0)
s = 87: (0, 0, 23, 19, 0, 0, 18, 0, 0, 0, 49, 0)
s = 88: (0, 0, 25, 13, 0, 0, 15, 0, 0, 0, 53, 0)
s = 89: (0, 0, 16, 17, 0, 0, 15, 0, 0, 0, 37, 0)
s = 90: (0, 0, 40, 17, 0, 0, 13, 0, 0, 0, 50, 0)
s = 91: (0, 0, 42, 15, 0, 0, 11, 0, 0, 0, 37, 0)
s = 92: (0, 0, 19, 21, 0, 0, 14, 0, 0, 0, 32, 0)
s = 93: (0, 0, 28, 17, 0, 0, 11, 0, 0, 0, 60, 0)
s = 94: (0, 0, 18, 10, 0, 0, 23, 0, 0, 0, 55, 0)
s = 95: (0, 0, 22, 22, 0, 0, 22, 0, 0, 0, 42, 0)
s = 96: (0, 0, 22, 18, 0, 0, 9, 0, 0, 0, 36, 0)
s = 97: (0, 0, 19, 13, 0, 0, 9, 0, 0, 0, 40, 0)
s = 98: (0, 0, 27, 24, 0, 0, 20, 0, 0, 0, 45, 0)
s = 99: (0, 0, 28, 22, 0, 0, 15, 0, 0, 0, 43, 0)
s = 100: (0, 0, 23, 24, 0, 0, 18, 0, 0, 0, 43, 0)
s = 101: (0, 0, 25, 16, 0, 0, 11, 0, 0, 0, 35, 0)
s = 102: (0, 0, 26, 11, 0, 0, 20, 0, 0, 0, 57, 0)
s = 103: (0, 0, 25, 16, 0, 0, 14, 0, 0, 0, 58, 0)
s = 104: (0, 0, 15, 14, 0, 0, 16, 0, 0, 0, 40, 0)
s = 105: (0, 0, 21, 19, 0, 0, 13, 0, 0, 0, 43, 0)
s = 106: (0, 0, 22, 11, 0, 0, 25, 0, 0, 0, 51, 0)
s = 107: (0, 0, 26, 22, 0, 0, 15, 0, 0, 0, 28, 0)
s = 108: (0, 0, 27, 18, 0, 0, 14, 0, 0, 0, 47, 0)
s = 109: (0, 0, 16, 13, 0, 0, 9, 0, 0, 0, 48, 0)
s = 110: (0, 0, 25, 28, 0, 0, 22, 0, 0, 0, 52, 0)
s = 111: (0, 0, 23, 10, 0, 0, 18, 0, 0, 0, 60, 0)
s = 112: (0, 0, 28, 21, 0, 0, 9, 0, 0, 0, 32, 0)
s = 113: (0, 0, 25, 21, 0, 0, 21, 0, 0, 0, 38, 0)
s = 114: (0, 0, 15, 15, 0, 0, 25, 0, 0, 0, 29, 0)
s = 115: (0, 0, 28, 11, 0, 0, 15, 0, 0, 0, 57, 0)
s = 116: (0, 0, 27, 24, 0, 0, 15, 0, 0, 0, 44, 0)
s = 117: (0, 0, 24, 19, 0, 0, 14, 0, 0, 0, 51, 0)
s = 118: (0, 0, 17, 17, 0, 0, 11, 0, 0, 0, 34, 0)
s = 119: (0, 0, 22, 17, 0, 0, 15, 0, 0, 0, 62, 0)
s = 120: (0, 0, 31, 16, 0, 0, 13, 0, 0, 0, 38, 0)
s = 121: (0, 0, 30, 24, 0, 0, 17, 0, 0, 0, 47, 0)
s = 122: (0, 0, 32, 14, 0, 0, 16, 0, 0, 0, 43, 0)
s = 123: (0, 0, 33, 20, 0, 0, 11, 0, 0, 0, 86, 0)
s = 124: (0, 0, 16, 21, 0, 0, 14, 0, 0, 0, 31, 0)
s = 125: (0, 0, 24, 22, 0, 0, 12, 0, 0, 0, 66, 0)
s = 126: (0, 0, 33, 20, 0, 0, 22, 0, 0, 0, 34, 0)
s = 127: (0, 0, 24, 14, 0, 0, 17, 0, 0, 0, 49, 0)
s = 128: (0, 0, 14, 15, 0, 0, 20, 0, 0, 0, 29, 0)
s = 129: (0, 0, 31, 14, 0, 0, 15, 0, 0, 0, 38, 0)
s = 130: (0, 0, 28, 15, 0, 0, 13, 0, 0, 0, 33, 0)
s = 131: (0, 0, 17, 12, 0, 0, 10, 0, 0, 0, 49, 0)
s = 132: (0, 0, 19, 12, 0, 0, 10, 0, 0, 0, 36, 0)
s = 133: (0, 0, 14, 15, 0, 0, 24, 0, 0, 0, 41, 0)
s = 134: (0, 0, 23, 10, 0, 0, 15, 0, 0, 0, 53, 0)
s = 135: (0, 0, 29, 14, 0, 0, 14, 0, 0, 0, 50, 0)
s = 136: (0, 0, 22, 11, 0, 0, 9, 0, 0, 0, 34, 0)
s = 137: (0, 0, 24, 14, 0, 0, 10, 0, 0, 0, 38, 0)
s = 138: (0, 0, 18, 16, 0, 0, 20, 0, 0, 0, 42, 0)
s = 139: (0, 0, 25, 16, 0, 0, 20, 0, 0, 0, 48, 0)
s = 140: (0, 0, 17, 14, 0, 0, 9, 0, 0, 0, 70, 0)
s = 141: (0, 0, 16, 13, 0, 0, 12, 0, 0, 0, 42, 0)
s = 142: (0, 0, 18, 23, 0, 0, 19, 0, 0, 0, 66, 0)
s = 143: (0, 0, 17, 20, 0, 0, 15, 0, 0, 0, 44, 0)
s = 144: (0, 0, 37, 26, 0, 0, 12, 0, 0, 0, 62, 0)
s = 145: (0, 0, 31, 16, 0, 0, 16, 0, 0, 0, 46, 0)
s = 146: (0, 0, 22, 23, 0, 0, 11, 0, 0, 0, 37, 0)
s = 147: (0, 0, 30, 17, 0, 0, 11, 0, 0, 0, 52, 0)
s = 148: (0, 0, 23, 11, 0, 0, 23, 0, 0, 0, 44, 0)
s = 149: (0, 0, 25, 15, 0, 0, 14, 0, 0, 0, 59, 0)
s = 150: (0, 0, 20, 11, 0, 0, 13, 0, 0, 0, 56, 0)
s = 151: (0, 0, 19, 18, 0, 0, 9, 0, 0, 0, 78, 0)
s = 152: (0, 0, 21, 22, 0, 0, 11, 0, 0, 0, 57, 0)
s = 153: (0, 0, 23, 11, 0, 0, 26, 0, 0, 0, 40, 0)
s = 154: (0, 0, 21, 20, 0, 0, 11, 0, 0, 0, 49, 0)
s = 155: (0, 0, 42, 16, 0, 0, 17, 0, 0, 0, 36, 0)
s = 156: (0, 0, 37, 14, 0, 0, 15, 0, 0, 0, 30, 0)
s = 157: (0, 0, 18, 19, 0, 0, 14, 0, 0, 0, 37, 0)
s = 158: (0, 0, 20, 15, 0, 0, 17, 0, 0, 0, 70, 0)
s = 159: (0, 0, 29, 25, 0, 0, 12, 0, 0, 0, 50, 0)
s = 160: (0, 0, 17, 20, 0, 0, 20, 0, 0, 0, 62, 0)
s = 161: (0, 0, 27, 16, 0, 0, 12, 0, 0, 0, 59, 0)
s = 162: (0, 0, 19, 18, 0, 0, 18, 0, 0, 0, 50, 0)
s = 163: (0, 0, 21, 23, 0, 0, 18, 0, 0, 0, 38, 0)
s = 164: (0, 0, 37, 22, 0, 0, 21, 0, 0, 0, 45, 0)
s = 165: (0, 0, 16, 12, 0, 0, 17, 0, 0, 0, 48, 0)
s = 166: (0, 0, 29, 27, 0, 0, 15, 0, 0, 0, 58, 0)
s = 167: (0, 0, 16, 19, 0, 0, 15, 0, 0, 0, 50, 0)
s = 168: (0, 0, 37, 13, 0, 0, 18, 0, 0, 0, 47, 0)
s = 169: (0, 0, 46, 15, 0, 0, 17, 0, 0, 0, 34, 0)
s = 170: (0, 0, 44, 13, 0, 0, 23, 0, 0, 0, 26, 0)
s = 171: (0, 0, 19, 20, 0, 0, 10, 0, 0, 0, 43, 0)
s = 172: (0, 0, 29, 13, 0, 0, 18, 0, 0, 0, 39, 0)
s = 173: (0, 0, 17, 15, 0, 0, 9, 0, 0, 0, 49, 0)
s = 174: (0, 0, 19, 13, 0, 0, 13, 0, 0, 0, 48, 0)
s = 175: (0, 0, 34, 10, 0, 0, 21, 0, 0, 0, 43, 0)
s = 176: (0, 0, 25, 18, 0, 0, 17, 0, 0, 0, 34, 0)
s = 177: (0, 0, 18, 16, 0, 0, 16, 0, 0, 0, 49, 0)
s = 178: (0, 0, 23, 25, 0, 0, 11, 0, 0, 0, 33, 0)
s = 179: (0, 0, 33, 18, 0, 0, 20, 0, 0, 0, 41, 0)
s = 180: (0, 0, 23, 17, 0, 0, 15, 0, 0, 0, 46, 0)
s = 181: (0, 0, 24, 12, 0, 0, 13, 0, 0, 0, 94, 0)
s = 182: (0, 0, 20, 27, 0, 0, 23, 0, 0, 0, 44, 0)
s = 183: (0, 0, 35, 20, 0, 0, 12, 0, 0, 0, 32, 0)
s = 184: (0, 0, 24, 11, 0, 0, 11, 0, 0, 0, 65, 0)
s = 185: (0, 0, 40, 11, 0, 0, 19, 0, 0, 0, 66, 0)
s = 186: (0, 0, 31, 11, 0, 0, 13, 0, 0, 0, 36, 0)
s = 187: (0, 0, 27, 21, 0, 0, 12, 0, 0, 0, 37, 0)
s = 188: (0, 0, 27, 18, 0, 0, 14, 0, 0, 0, 43, 0)
s = 189: (0, 0, 25, 16, 0, 0, 13, 0, 0, 0, 47, 0)
s = 190: (0, 0, 25, 20, 0, 0, 16, 0, 0, 0, 56, 0)
s = 191: (0, 0, 34, 16, 0, 0, 21, 0, 0, 0, 35, 0)
s = 192: (0, 0, 19, 13, 0, 0, 15, 0, 0, 0, 47, 0)
s = 193: (0, 0, 34, 13, 0, 0, 11, 0, 0, 0, 32, 0)
s = 194: (0, 0, 26, 22, 0, 0, 9, 0, 0, 0, 65, 0)
s = 195: (0, 0, 33, 15, 0, 0, 17, 0, 0, 0, 49, 0)
s = 196: (0, 0, 32, 16, 0, 0, 9, 0, 0, 0, 57, 0)
s = 197: (0, 0, 21, 13, 0, 0, 21, 0, 0, 0, 48, 0)
s = 198: (0, 0, 31, 13, 0, 0, 20, 0, 0, 0, 75, 0)
s = 199: (0, 0, 17, 15, 0, 0, 12, 0, 0, 0, 41, 0)
s = 200: (0, 0, 15, 18, 0, 0, 14, 0, 0, 0, 48, 0)
************************************************************************
ES/LS-VALUES:
jobnr.   ES(i)    LS(i)
------------------------------------------------------------------------
  0        0        0
  1        0       53
  2        0       53
  3        0       52
  4        4       57
  5        3       69
  6        6       65
  7        6       65
  8        4       73
  9       11       71
 10        6       59
 11       21       75
************************************************************************
BIG-M-VALUES:
M1 = 62, M2 = 163
************************************************************************
